c --- [ banner ] -------------------------------------------------------------
c 
c CaDiCaL Radically Simplified CDCL SAT Solver
c Copyright (c) 2016-2021 A. Biere, M. Fleury, N. Froleyks
c 
c Version 1.5.2 ca2dd1661408261d5d9922f656c807ded88978da
c g++ (Ubuntu 7.5.0-3ubuntu1~18.04) 7.5.0 -Wall -Wextra -O3 -DNDEBUG
c Sat Feb 26 22:54:12 EST 2022 Linux fac-vanhoeve01 5.4.0-99-generic x86_64
c 
c --- [ parsing input ] ------------------------------------------------------
c 
c reading DIMACS file from '<stdin>' (use '-h' for a list of common options)
c found 'p cnf 2692 7976' header
c parsed 7976 clauses in 0.00 seconds process time
c disconnecting from '<stdin>'
c after reading 106558 bytes 0.1 MB
c 
c --- [ options ] ------------------------------------------------------------
c 
c all options are set to their default value
c 
c --- [ solving ] ------------------------------------------------------------
c 
c time measured in process time since initialization
c 
c  seconds  reductions  redundant irredundant
c         MB    restarts       trail    variables
c          level   conflicts       glue      remaining
c 
c *  0.00  5  0 0   0    0    0  0% 0 7974 2618 97%
c {  0.01  5  0 0   0    0    0  0% 0 7974 2618 97%
c -  0.02  5 106 1  13  300  281 76% 7 7902 2618 97%
c -  0.06  5 56 2  83  900  753 84% 8 7902 2618 97%
c }  0.06  5 53 2 101 1001  849 84% 8 7902 2618 97%
c [  0.06  5  0 2 101 1001  849  0% 0 7902 2618 97%
c O  0.07  5 14 2 101 1002  850 95% 6 7902 2618 97%
c -  0.11  6 16 3 101 1802 1069 92% 13 7902 2618 97%
c ]  0.18  6 16 3 102 3001 1889 91% 13 7902 2618 97%
c {  0.18  6 53 3 102 3001 1889 84% 8 7902 2618 97%
c -  0.18  6 53 4 103 3003 1328 84% 8 7902 2618 97%
c F  0.18  6 53 4 103 3004 1329 84% 8 7902 2618 97%
c s  0.20  6 48 4 140 3216 1526 85% 9 7902 2618 97%
c w  0.21  6 48 4 140 3216 1524 85% 9 7902 2618 97%
c e  0.22  6 48 4 140 3216   70 85% 9 5686 885 33%
c s  0.23  6 48 4 140 3216   66 85% 9 5686 885 33%
c -  0.29  6 34 5 317 4503 1242 82% 9 5686 885 33%
c p  0.31  6 31 5 333 5001 1671 80% 9 5686 885 33%
c #  0.35  6 28 5 406 6006 2620 81% 9 5686 885 33%
c -  0.37  6 28 6 424 6303 2214 82% 9 5686 885 33%
c 
c  seconds  reductions  redundant irredundant
c         MB    restarts       trail    variables
c          level   conflicts       glue     remaining
c 
c }  0.40  6 26 6 477 7001 2853 80% 9 5686 885 33%
c [  0.40  6 16 6 477 7001 2853 276% 13 5686 885 33%
c -  0.46  7 24 7 478 8404 2898 197% 15 5686 885 33%
c I  0.54  7 26 7 479 10007 4299 161% 16 5686 885 33%
c -  0.57  7 26 8 480 10804 3251 146% 16 5686 885 33%
c -  0.73  7 28 9 482 13504 3553 128% 18 5686 885 33%
c s  0.76  7 29 9 482 13951 3921 126% 18 5686 885 33%
c w  0.76  7 29 9 482 13951 3920 126% 18 5686 885 33%
c s  0.77  7 29 9 482 13951 3920 126% 18 5686 885 33%
c ^  0.77  7 29 9 482 13951 3920 126% 18 5686 885 33%
c ]  0.84  7 29 9 482 15002 4814 122% 19 5686 885 33%
c {  0.84  7 26 9 482 15002 4814 80% 9 5686 885 33%
c p  0.84  7 26 9 482 15002 4817 80% 9 5686 885 33%
c B  0.84  7 27 9 482 15010 4825 80% 9 5686 885 33%
c -  0.91  7 25 10 604 16504 4136 80% 9 5686 885 33%
c -  1.06  6 22 11 869 19804 4437 81% 9 5686 885 33%
c W  1.12  6 22 11 913 21011 5504 81% 9 5686 885 33%
c -  1.24  7 22 12 1168 23406 5178 82% 10 5686 885 33%
c -  1.43  7 21 13 1497 27306 5865 82% 10 5686 885 33%
c F  1.46  7 21 13 1531 28012 6514 82% 10 5686 885 33%
c 
c  seconds  reductions     redundant  irredundant
c         MB     restarts         trail     variables
c          level      conflicts       glue      remaining
c 
c p  1.56  7 21 13 1606 30003 8322 81% 10 5686 885 33%
c s  1.57  7 21 13 1616 30053 8359 81% 10 5686 885 33%
c w  1.58  7 21 13 1616 30053 8358 81% 10 5686 885 33%
c s  1.60  7 21 13 1616 30053 8357 81% 10 5686 885 33%
c ^  1.60  7 21 13 1616 30053 8357 81% 10 5686 885 33%
c }  1.65  7 21 13 1703 31003 9238 81% 10 5686 885 33%
c [  1.65  7 29 13 1703 31003 9238 122% 19 5686 885 33%
c -  1.68  7 28 14 1703 31506 6470 121% 18 5686 885 33%
c -  1.91  7 27 15 1706 36006 6689 110% 17 5686 885 33%
c B  1.91  7 27 15 1706 36013 6696 110% 17 5686 885 33%
c -  2.21  8 31 16 1709 40806 6656 104% 19 5686 885 33%
c W  2.51  8 31 16 1710 45015 10122 102% 21 5686 885 33%
c -  2.57  8 32 17 1710 45906 6895 101% 21 5686 885 33%
c p  2.85  8 32 17 1711 50003 9983 99% 22 5686 885 33%
c -  2.94  8 32 18 1711 51306 7229 98% 22 5686 885 33%
c s  2.96  8 32 18 1711 51524 7381 98% 22 5686 885 33%
c s  2.98  8 32 18 1711 51524 7380 98% 22 5686 885 33%
c ^  2.98  8 32 18 1711 51524 7380 98% 22 5686 885 33%
c O  3.20  8 32 18 1712 55018 10126 97% 22 5686 885 33%
c -  3.31  9 31 19 1714 57006 7410 97% 22 5686 885 33%
c 
c  seconds  reductions      redundant  irredundant
c         MB     restarts          trail     variables
c          level      conflicts        glue      remaining
c 
c ]  3.62  9 30 19 1718 63003 11905 95% 21 5686 885 33%
c {  3.62  9 21 19 1718 63003 11905 81% 10 5686 885 33%
c -  3.63  8 21 20 1718 63007 7272 81% 10 5686 885 33%
c B  3.78  8 20 20 1921 66019 9948 82% 10 5686 885 33%
c -  3.95  8 20 21 2204 69308 8520 82% 10 5686 885 33%
c p  4.22  8 20 21 2400 75004 13711 82% 10 5686 885 33%
c -  4.27  9 20 22 2480 75908 9897 82% 10 5686 885 33%
c W  4.40  9 20 22 2622 78020 11815 81% 10 5686 885 33%
c s  4.44  9 20 22 2659 78361 12076 81% 10 5686 885 33%
c w  4.46  9 20 22 2659 78361 12076 81% 10 5686 885 33%
c s  4.49  9 20 22 2659 78361 12073 81% 10 5686 885 33%
c ^  4.49  9 20 22 2659 78361 12073 81% 10 5686 885 33%
c -  4.73  9 20 23 3007 82809 11210 81% 10 5686 885 33%
c -  5.12  9 19 24 3385 90010 11212 82% 10 5686 885 33%
c #  5.17  9 19 24 3439 91024 12132 82% 10 5686 885 33%
c -  5.53 10 19 25 3916 97510 12143 82% 10 5686 885 33%
c p  5.93 10 19 25 4317 105005 18873 82% 10 5686 885 33%
c B  5.93 10 19 25 4317 105025 18887 82% 10 5686 885 33%
c -  5.95 10 19 26 4350 105312 12755 82% 10 5686 885 33%
c s  6.25 10 19 26 4606 110565 17208 82% 10 5686 885 33%
c 
c  seconds  reductions       redundant  irredundant
c         MB     restarts           trail     variables
c          level      conflicts         glue      remaining
c 
c w  6.27 10 19 26 4606 110565 17207 82% 10 5686 885 33%
c e  6.29 10 19 26 4606 110565 4028 82% 10 8122 567 21%
c s  6.30 10 19 26 4606 110565 4028 82% 10 8122 567 21%
c ^  6.30 10 19 26 4606 110565 4028 82% 10 8122 567 21%
c -  6.44  8 19 27 4886 113412 5219 84% 10 8122 567 21%
c W  6.80  8 19 27 5341 120026 11140 81% 10 8122 567 21%
c -  6.89  9 19 28 5452 121813 10070 81% 10 8122 567 21%
c }  7.14  9 19 28 5753 127005 14798 80% 10 8122 567 21%
c [  7.14  9 30 28 5753 127005 14798 149% 21 8122 567 21%
c -  7.35  9 28 29 5753 130513 12716 143% 20 8122 567 21%
c B  7.69  9 26 29 5758 136027 17679 136% 19 8122 567 21%
c -  7.88 10 28 30 5760 139513 13523 132% 19 8122 567 21%
c p  7.92 10 28 30 5760 140005 13964 131% 19 8122 567 21%
c -  8.42 10 29 31 5761 148816 12943 123% 20 8122 567 21%
c W  8.74 10 29 31 5762 153031 16054 120% 20 8122 567 21%
c -  9.06 10 29 32 5762 158417 12813 116% 20 8122 567 21%
c s  9.43 10 29 32 5762 164331 17581 113% 20 8122 567 21%
c s  9.48 10 29 32 5762 164331 17575 113% 20 8122 567 21%
c -  9.76 11 29 33 5763 168318 13765 111% 20 8122 567 21%
c I  9.93 11 29 33 5765 171032 15946 110% 20 8122 567 21%
c 
c  seconds  reductions       redundant   irredundant
c         MB     restarts           trail      variables
c          level      conflicts          glue      remaining
c 
c - 10.46 13 30 34 5769 178518 14787 108% 20 8122 567 21%
c p 10.58 13 30 34 5769 180005 16119 107% 20 8122 567 21%
c - 11.27 13 30 35 5776 189019 15174 105% 20 8122 567 21%
c B 11.34 13 30 35 5776 190037 16009 105% 20 8122 567 21%
c - 12.08 11 30 36 5777 199821 14965 102% 20 8122 567 21%
c W 12.96 11 30 36 5784 210038 23478 101% 20 8122 567 21%
c - 13.05 13 30 37 5784 210921 15735 100% 20 8122 567 21%
c - 13.98 15 29 38 5791 222323 16415 99% 20 8122 567 21%
c p 14.19 15 29 38 5791 225006 18553 98% 20 8122 567 21%
c O 14.64 15 29 38 5792 231039 23368 98% 20 8122 567 21%
c - 14.86 15 29 39 5792 234024 16247 97% 20 8122 567 21%
c - 15.67 15 27 40 5793 246026 15160 96% 19 8122 567 21%
c B 16.13 15 27 40 5794 253040 19421 95% 19 8122 567 21%
c ] 16.23 15 27 40 5794 255005 21214 95% 19 8122 567 21%
c { 16.23 15 19 40 5794 255005 21214 80% 10 8122 567 21%
c - 16.44 15 19 41 5962 258327 15793 79% 10 8122 567 21%
c - 17.16 15 19 42 6648 270928 17872 78% 10 8122 567 21%
c p 17.42 15 19 42 7019 275007 21586 78% 10 8122 567 21%
c F 17.50 15 19 42 7159 276041 22514 78% 10 8122 567 21%
c - 18.03 15 19 43 7850 283829 20451 79% 10 8122 567 21%
c 
c  seconds  reductions       redundant  irredundant
c         MB     restarts           trail     variables
c          level      conflicts         glue      remaining
c 
c - 18.80 11 18 44 8520 297035 20516 78% 10 8122 567 21%
c B 18.99 11 18 44 8589 300044 23165 78% 10 8122 567 21%
c - 19.65 13 18 45 9275 310535 22254 77% 10 8122 567 21%
c - 20.56 15 18 46 10210 324336 23746 77% 10 8122 567 21%
c W 20.71 15 18 46 10350 325048 24402 77% 10 8122 567 21%
c p 21.05 15 18 46 10651 330007 29055 78% 10 8122 566 21%
c s 21.10 15 18 46 10651 330007 28947 78% 10 8122 566 21%
c v 21.13 15 18 46 10651 330007 28947 78% 10 8117 566 21%
c w 21.16 15 18 46 10651 330007 28932 78% 10 8117 566 21%
c s 21.21 15 18 46 10651 330007 28921 78% 10 8112 566 21%
c - 21.92 15 18 47 11614 338438 25285 78% 10 8112 566 21%
c # 22.85 15 18 47 12746 351049 36661 78% 10 8112 566 21%
c - 23.02 15 18 48 12873 352838 25373 78% 10 8112 566 21%
c - 24.09 16 18 49 13996 367538 26376 79% 10 8112 566 21%
c B 24.76 16 18 49 14491 378051 35628 79% 10 8112 566 21%
c - 25.14 16 18 50 14849 382539 26840 79% 10 8112 566 21%
c p 25.66 16 18 50 15362 390010 33688 79% 10 8112 566 21%
c - 26.34 16 18 51 16047 397840 28271 79% 10 8112 566 21%
c s 26.48 16 18 51 16134 399149 29433 80% 10 8112 566 21%
c w 26.53 16 18 51 16134 399149 29428 80% 10 8112 566 21%
c 
c  seconds  reductions        redundant  irredundant
c         MB      restarts           trail     variables
c          level       conflicts         glue      remaining
c 
c s 26.59 16 18 51 16134 399149 29424 80% 10 8112 566 21%
c W 27.21 16 18 51 16581 406052 35549 79% 10 8112 566 21%
c - 27.88 13 18 52 17288 413444 29052 80% 10 8112 566 21%
c - 29.14 13 18 53 18626 429345 29364 79% 10 8112 566 21%
c F 29.60 13 18 53 19173 435054 34505 80% 10 8112 566 21%
c - 30.51 14 18 54 20266 445547 30707 80% 10 8112 566 21%
c p 31.31 14 18 54 21306 455012 39242 80% 10 8112 566 21%
c - 31.90 14 18 55 21769 462047 31036 80% 10 8112 566 21%
c B 32.17 14 18 55 22212 465056 33846 80% 10 8112 566 21%
c - 33.31 14 18 56 23297 478847 31707 80% 10 8112 566 21%
c - 34.67 14 18 57 24515 495947 32123 81% 10 8112 566 21%
c W 34.82 14 18 57 24526 496059 32213 81% 10 8112 566 21%
c } 35.97 14 18 57 25548 511006 45472 81% 10 8112 566 21%
c [ 35.97 14 27 57 25548 511006 45472 95% 19 8112 566 21%
c - 36.16 14 26 58 25548 513348 32810 95% 19 8112 566 21%
c p 36.98 14 26 58 25548 525012 42764 93% 19 8112 566 21%
c W 37.39 14 26 58 25548 528061 44664 93% 18 8112 566 21%
c - 37.64 14 25 59 25548 531050 30672 93% 18 8112 566 21%
c - 39.00 13 24 60 25555 549053 26283 92% 18 8112 566 21%
c I 39.90 13 24 60 25561 561062 36096 91% 18 8112 566 21%
c 
c  seconds  reductions        redundant  irredundant
c         MB      restarts           trail     variables
c          level       conflicts         glue      remaining
c 
c - 40.40 17 25 61 25563 567353 29180 91% 18 8112 566 21%
c - 42.07 17 26 62 25570 585953 30120 91% 18 8112 566 21%
c B 42.86 17 26 62 25577 595063 37786 90% 18 8112 566 21%
c p 43.27 17 27 62 25578 600012 42040 90% 19 8112 566 21%
c - 43.69 17 27 63 25578 604854 30440 90% 19 8112 566 21%
c - 45.35 15 28 64 25580 624055 31173 90% 20 8112 566 21%
c W 46.02 15 28 64 25585 630066 36456 90% 20 8112 566 21%
c - 47.06 19 29 65 25592 643556 31981 89% 20 8112 566 21%
c - 48.86 19 29 66 25600 663358 31413 89% 21 8112 566 21%
c O 49.08 19 29 66 25601 666068 33742 89% 21 8112 566 21%
c p 50.11 19 28 66 25608 680013 42157 88% 20 8112 566 21%
c - 50.40 19 28 67 25609 683462 26949 88% 20 8112 566 21%
c B 51.85 19 27 67 25610 703069 39488 88% 19 8112 566 21%
c - 51.94 19 27 68 25610 703870 27422 88% 19 8112 566 21%
c - 53.55 19 27 69 25611 724573 30891 88% 20 8112 566 21%
c W 55.18 19 27 69 25612 741071 44301 88% 20 8112 566 21%
c - 55.62 20 27 70 25612 745573 32599 88% 20 8112 566 21%
c p 57.33 20 26 70 25612 765014 48607 87% 20 8112 566 21%
c - 57.51 20 26 71 25612 766874 33352 87% 20 8112 566 21%
c I 58.59 20 26 71 25612 780072 43743 87% 19 8112 566 21%
c 
c  seconds  reductions        redundant  irredundant
c         MB      restarts           trail     variables
c          level       conflicts         glue      remaining
c 
c - 59.31 20 27 72 25612 788475 35003 87% 19 8112 566 21%
c s 59.38 20 27 72 25612 788475 34903 87% 19 8112 566 21%
c w 59.49 20 27 72 25612 788475 34873 87% 19 8112 566 21%
c - 61.58 25 28 73 25616 810376 36979 87% 20 8112 566 21%
c B 62.78 25 28 73 25621 820073 45573 87% 20 8112 566 21%
c - 64.30 20 28 74 25627 832576 37883 87% 20 8112 566 21%
c p 66.71 20 28 74 25637 855015 56320 87% 20 8112 566 21%
c - 66.78 22 28 75 25637 855076 35958 87% 20 8112 566 21%
c W 67.54 22 28 75 25641 861074 40934 87% 20 8112 566 21%
c - 69.29 22 27 76 25643 877876 36629 87% 20 8112 566 21%
c - 71.43 22 27 77 25650 900977 36921 86% 19 8112 566 21%
c O 71.60 22 26 77 25652 903076 38638 86% 19 8112 566 21%
c - 73.39 22 25 78 25660 924380 36033 86% 19 8112 566 21%
c B 75.30 22 24 78 25672 946079 52917 86% 18 8112 566 21%
c - 75.52 22 24 79 25673 948080 36835 86% 18 8112 566 21%
c p 75.70 22 24 79 25673 950016 38587 86% 18 8112 563 21%
c s 75.78 22 24 79 25673 950016 38520 86% 18 8097 563 21%
c - 77.67 22 23 80 25674 972082 33527 86% 17 8097 563 21%
c W 79.46 22 23 80 25675 990081 46491 86% 17 8097 563 21%
c - 80.12 22 22 81 25675 996382 34616 86% 17 8097 563 21%
c 
c  seconds  reductions         redundant  irredundant
c         MB      restarts            trail     variables
c          level        conflicts         glue      remaining
c 
c - 82.56 23 22 82 25685 1020982 37435 86% 17 8097 563 21%
c ] 82.74 23 22 82 25686 1023007 39131 86% 17 8097 563 21%
c { 82.74 23 18 82 25686 1023007 39131 81% 10 8097 563 21%
c s 83.72 23 18 82 26414 1034633 49479 81% 10 8070 563 21%
c w 83.82 23 18 82 26414 1034633 49474 81% 10 8070 563 21%
c s 83.88 23 18 82 26414 1034633 49472 81% 10 8070 563 21%
c # 83.96 23 18 82 26509 1035082 49895 81% 10 8070 563 21%
c - 84.94 23 18 83 27314 1045882 41177 81% 10 8070 563 21%
c p 85.31 23 18 83 27617 1050016 44969 81% 10 8070 563 21%
c - 87.13 23 18 84 28737 1071083 43708 81% 10 8070 563 21%
c B 87.99 23 18 84 29343 1081085 52871 82% 10 8070 563 21%
c - 89.59 24 18 85 30380 1096587 45868 81% 10 8070 563 21%
c - 92.07 24 18 86 31942 1122388 46660 81% 10 8070 563 21%
c W 92.90 24 18 86 32517 1128086 51964 81% 10 8070 563 21%
c - 95.16 24 18 87 34147 1148488 48642 82% 10 8070 563 21%
c p 95.85 24 18 87 34721 1155017 54704 82% 10 8070 561 21%
c s 96.02 24 18 87 34721 1155017 54587 82% 10 8070 561 21%
c v 96.06 24 18 87 34721 1155017 54587 82% 10 8048 561 21%
c w 96.12 24 18 87 34721 1155017 54578 82% 10 8048 561 21%
c s 96.30 24 18 87 34721 1155017 54562 82% 10 8038 561 21%
c 
c  seconds  reductions         redundant  irredundant
c         MB      restarts            trail     variables
c          level        conflicts         glue      remaining
c 
c - 98.43 25 18 88 36022 1174890 50061 82% 10 8038 561 21%
c F 98.54 25 18 88 36086 1176087 51058 82% 10 8038 561 21%
c - 100.97 25 17 89 37397 1201590 49454 81% 10 8038 561 21%
c B 103.32 25 17 89 38914 1225088 70322 81% 10 8038 561 21%
c - 103.81 25 17 90 39267 1228591 51046 81% 10 8038 561 21%
c s 106.75 25 17 90 41034 1254878 73586 81% 10 8038 561 21%
c w 106.87 25 17 90 41034 1254878 73578 81% 10 8038 561 21%
c s 107.04 25 17 90 41034 1254878 73573 81% 10 8038 561 21%
c - 107.25 25 17 91 41133 1255891 51908 81% 10 8038 561 21%
c p 108.14 25 17 91 41716 1265017 59927 80% 10 8038 561 21%
c W 109.52 25 17 91 42332 1275089 68377 80% 10 8038 561 21%
c - 110.59 25 17 92 42983 1283493 52678 80% 10 8038 561 21%
c - 113.74 26 17 93 45238 1311396 54185 80% 10 8038 561 21%
c # 115.26 26 17 93 46253 1326091 67022 81% 10 8038 561 21%
c - 116.84 30 17 94 46998 1339598 55049 81% 10 8038 561 21%
c - 120.00 30 17 95 48951 1368098 55854 81% 10 8038 561 21%
c B 121.10 30 17 95 49794 1378092 64936 81% 10 8038 561 21%
c p 121.39 30 17 95 49964 1380017 66683 81% 10 8038 561 21%
c - 123.35 30 17 96 50975 1396903 57420 81% 10 8038 561 21%
c - 126.78 31 17 97 52857 1426008 58416 81% 10 8038 561 21%
c 
c  seconds   reductions         redundant  irredundant
c          MB      restarts            trail     variables
c           level        conflicts         glue      remaining
c 
c } 127.56 31 17 97 53191 1431093 62601 81% 10 8038 561 21%
c 1 127.56 31 17 97 53191 1431093 62601 81% 10 8038 561 21%
c 
c --- [ result ] -------------------------------------------------------------
c 
s SATISFIABLE
v -1 -2 -3 -4 -5 -6 -7 8 -9 10 -11 -12 -13 -14 -15 -16 -17 -18 -19 -20 -21 -22
v -23 24 -25 26 -27 28 -29 -30 31 -32 -33 -34 -35 -36 37 38 -39 -40 -41 -42
v -43 -44 -45 -46 47 -48 -49 -50 -51 -52 -53 54 55 56 -57 -58 59 -60 -61 62 63
v -64 -65 -66 -67 -68 -69 -70 -71 -72 -73 -74 -75 76 -77 -78 -79 -80 -81 82
v -83 -84 85 86 -87 -88 -89 -90 -91 -92 -93 -94 -95 -96 -97 -98 -99 -100 -101
v -102 -103 -104 -105 -106 -107 -108 109 -110 -111 -112 113 -114 -115 -116
v -117 -118 119 -120 121 -122 -123 -124 -125 -126 -127 -128 129 -130 -131 -132
v -133 -134 -135 -136 -137 -138 -139 140 -141 -142 -143 -144 -145 -146 -147
v 148 -149 -150 -151 -152 -153 -154 -155 156 -157 -158 -159 -160 -161 -162
v -163 -164 -165 -166 -167 -168 -169 -170 -171 -172 173 174 -175 -176 -177
v -178 -179 180 -181 182 183 -184 -185 -186 -187 -188 -189 -190 -191 -192 193
v -194 195 -196 -197 -198 -199 -200 -201 -202 -203 -204 -205 -206 -207 -208
v -209 -210 211 -212 -213 214 -215 216 -217 -218 -219 -220 -221 -222 223 -224
v -225 -226 -227 -228 -229 -230 231 232 -233 -234 -235 -236 -237 -238 -239 240
v 241 -242 -243 -244 -245 246 -247 -248 -249 -250 251 -252 253 -254 -255 -256
v -257 258 -259 260 -261 -262 -263 264 -265 -266 -267 268 269 -270 -271 272
v -273 274 275 -276 -277 -278 279 280 -281 -282 -283 -284 285 -286 -287 -288
v -289 -290 291 -292 293 -294 -295 -296 -297 298 -299 -300 -301 -302 303 304
v 305 306 307 308 -309 -310 311 312 -313 -314 315 316 317 318 -319 -320 -321
v 322 323 324 325 326 327 328 329 330 331 332 333 334 335 336 337 338 339 340
v 341 342 343 344 345 346 347 348 349 350 351 352 353 354 355 356 357 358 359
v 360 361 362 363 364 365 366 367 368 369 370 371 372 373 374 375 376 377 378
v 379 380 381 382 383 384 385 386 387 388 389 390 391 392 393 394 395 396 397
v 398 -399 -400 401 402 403 404 405 406 407 408 409 410 411 412 413 414 415
v 416 417 418 419 420 421 422 423 424 425 426 427 428 429 430 431 432 433 434
v 435 436 437 438 439 440 441 442 443 444 445 446 447 448 449 450 451 452 453
v 454 455 456 457 458 459 460 461 462 463 464 465 466 467 468 469 470 471 472
v -473 -474 -475 -476 -477 -478 -479 480 481 482 483 484 485 486 487 488 489
v 490 491 492 493 494 495 496 497 498 499 500 501 502 503 504 505 506 507 508
v 509 510 511 512 513 514 515 516 517 518 519 520 521 522 523 524 525 526 527
v 528 529 530 531 532 533 534 535 536 537 538 539 540 541 542 543 544 545 546
v -547 -548 -549 -550 -551 -552 -553 -554 -555 556 557 558 559 560 561 562 563
v 564 565 566 567 568 569 570 571 572 573 574 575 576 577 578 579 580 581 582
v 583 584 585 586 587 588 589 590 591 592 593 594 595 596 597 598 599 600 601
v 602 603 604 605 606 607 608 609 610 611 612 613 614 615 616 617 618 619 620
v -621 -622 -623 -624 -625 -626 -627 -628 -629 -630 -631 -632 -633 634 635 636
v 637 638 639 640 641 642 643 644 645 646 647 648 649 650 651 652 653 654 655
v 656 657 658 659 660 661 662 663 664 665 666 667 668 669 670 671 672 673 674
v 675 676 677 678 679 680 681 682 683 684 685 686 687 688 689 690 691 692 693
v 694 -695 -696 -697 -698 -699 -700 -701 -702 -703 -704 -705 -706 -707 -708
v -709 -710 -711 712 713 714 715 716 717 718 719 720 721 722 723 724 725 726
v 727 728 729 730 731 732 733 734 735 736 737 738 739 740 741 742 743 744 745
v 746 747 748 749 750 751 752 753 754 755 756 757 758 759 760 761 762 763 764
v 765 766 767 768 -769 -770 -771 -772 -773 -774 -775 -776 -777 -778 -779 -780
v -781 -782 -783 -784 -785 -786 787 788 789 790 791 792 793 794 795 796 797
v 798 799 800 801 802 803 804 805 806 807 808 809 810 811 812 813 814 815 816
v 817 818 819 820 821 822 823 824 825 826 827 828 829 830 831 832 833 834 835
v 836 837 838 839 840 841 842 -843 -844 -845 -846 -847 -848 -849 -850 -851
v -852 -853 -854 -855 -856 -857 -858 -859 -860 -861 -862 -863 864 865 866 867
v 868 869 870 871 872 873 874 875 876 877 878 879 880 881 882 883 884 885 886
v 887 888 889 890 891 892 893 894 895 896 897 898 899 900 901 902 903 904 905
v 906 907 908 909 910 911 912 913 914 915 916 -917 -918 -919 -920 -921 -922
v -923 -924 -925 -926 -927 -928 -929 -930 -931 -932 -933 -934 -935 -936 -937
v -938 -939 940 941 942 943 944 945 946 947 948 949 950 951 952 953 954 955
v 956 957 958 959 960 961 962 963 964 965 966 967 968 969 970 971 972 973 974
v 975 976 977 978 979 980 981 982 983 984 985 986 987 988 989 990 -991 -992
v -993 -994 -995 -996 -997 -998 -999 -1000 -1001 -1002 -1003 -1004 -1005 -1006
v -1007 -1008 -1009 -1010 -1011 -1012 -1013 -1014 1015 1016 1017 1018 1019
v 1020 1021 1022 1023 1024 1025 1026 1027 1028 1029 1030 1031 1032 1033 1034
v 1035 1036 1037 1038 1039 1040 1041 1042 1043 1044 1045 1046 1047 1048 1049
v 1050 1051 1052 1053 1054 1055 1056 1057 1058 1059 1060 1061 1062 1063 1064
v -1065 -1066 -1067 -1068 -1069 -1070 -1071 -1072 -1073 -1074 -1075 -1076
v -1077 -1078 -1079 -1080 -1081 -1082 -1083 -1084 -1085 -1086 -1087 -1088
v -1089 -1090 -1091 -1092 1093 1094 1095 1096 1097 1098 1099 1100 1101 1102
v 1103 1104 1105 1106 1107 1108 1109 1110 1111 1112 1113 1114 1115 1116 1117
v 1118 1119 1120 1121 1122 1123 1124 1125 1126 1127 1128 1129 1130 1131 1132
v 1133 1134 1135 1136 1137 1138 -1139 -1140 -1141 -1142 -1143 -1144 -1145
v -1146 -1147 -1148 -1149 -1150 -1151 -1152 -1153 -1154 -1155 -1156 -1157
v -1158 -1159 -1160 -1161 -1162 -1163 -1164 -1165 -1166 -1167 1168 1169 1170
v 1171 1172 1173 1174 1175 1176 1177 1178 1179 1180 1181 1182 1183 1184 1185
v 1186 1187 1188 1189 1190 1191 1192 1193 1194 1195 1196 1197 1198 1199 1200
v 1201 1202 1203 1204 1205 1206 1207 1208 1209 1210 1211 1212 -1213 -1214
v -1215 -1216 -1217 -1218 -1219 -1220 -1221 -1222 -1223 -1224 -1225 -1226
v -1227 -1228 -1229 -1230 -1231 -1232 -1233 -1234 -1235 -1236 -1237 -1238
v -1239 -1240 -1241 -1242 -1243 -1244 -1245 -1246 1247 1248 1249 1250 1251
v 1252 1253 1254 1255 1256 1257 1258 1259 1260 1261 1262 1263 1264 1265 1266
v 1267 1268 1269 1270 1271 1272 1273 1274 1275 1276 1277 1278 1279 1280 1281
v 1282 1283 1284 1285 1286 -1287 -1288 -1289 -1290 -1291 -1292 -1293 -1294
v -1295 -1296 -1297 -1298 -1299 -1300 -1301 -1302 -1303 -1304 -1305 -1306
v -1307 -1308 -1309 -1310 -1311 -1312 -1313 -1314 -1315 -1316 -1317 -1318
v -1319 -1320 -1321 -1322 -1323 -1324 -1325 -1326 1327 1328 1329 1330 1331
v 1332 1333 1334 1335 1336 1337 1338 1339 1340 1341 1342 1343 1344 1345 1346
v 1347 1348 1349 1350 1351 1352 1353 1354 1355 1356 1357 1358 1359 1360 -1361
v -1362 -1363 -1364 -1365 -1366 -1367 -1368 -1369 -1370 -1371 -1372 -1373
v -1374 -1375 -1376 -1377 -1378 -1379 -1380 -1381 -1382 -1383 -1384 -1385
v -1386 -1387 -1388 -1389 -1390 -1391 -1392 -1393 -1394 -1395 -1396 -1397
v -1398 -1399 -1400 -1401 -1402 1403 1404 1405 1406 1407 1408 1409 1410 1411
v 1412 1413 1414 1415 1416 1417 1418 1419 1420 1421 1422 1423 1424 1425 1426
v 1427 1428 1429 1430 1431 1432 1433 1434 -1435 -1436 -1437 -1438 -1439 -1440
v -1441 -1442 -1443 -1444 -1445 -1446 -1447 -1448 -1449 -1450 -1451 -1452
v -1453 -1454 -1455 -1456 -1457 -1458 -1459 -1460 -1461 -1462 -1463 -1464
v -1465 -1466 -1467 -1468 -1469 -1470 -1471 -1472 -1473 -1474 -1475 -1476
v -1477 -1478 -1479 -1480 -1481 1482 1483 1484 1485 1486 1487 1488 1489 1490
v 1491 1492 1493 1494 1495 1496 1497 1498 1499 1500 1501 1502 1503 1504 1505
v 1506 1507 1508 -1509 -1510 -1511 -1512 -1513 -1514 -1515 -1516 -1517 -1518
v -1519 -1520 -1521 -1522 -1523 -1524 -1525 -1526 -1527 -1528 -1529 -1530
v -1531 -1532 -1533 -1534 -1535 -1536 -1537 -1538 -1539 -1540 -1541 -1542
v -1543 -1544 -1545 -1546 -1547 -1548 -1549 -1550 -1551 -1552 -1553 -1554
v -1555 -1556 -1557 -1558 -1559 -1560 1561 1562 1563 1564 1565 1566 1567 1568
v 1569 1570 1571 1572 1573 1574 1575 1576 1577 1578 1579 1580 1581 1582 -1583
v -1584 -1585 -1586 -1587 -1588 -1589 -1590 -1591 -1592 -1593 -1594 -1595
v -1596 -1597 -1598 -1599 -1600 -1601 -1602 -1603 -1604 -1605 -1606 -1607
v -1608 -1609 -1610 -1611 -1612 -1613 -1614 -1615 -1616 -1617 -1618 -1619
v -1620 -1621 -1622 -1623 -1624 -1625 -1626 -1627 -1628 -1629 -1630 -1631
v -1632 -1633 -1634 -1635 1636 1637 1638 1639 1640 1641 1642 1643 1644 1645
v 1646 1647 1648 1649 1650 1651 1652 1653 1654 1655 1656 -1657 -1658 -1659
v -1660 -1661 -1662 -1663 -1664 -1665 -1666 -1667 -1668 -1669 -1670 -1671
v -1672 -1673 -1674 -1675 -1676 -1677 -1678 -1679 -1680 -1681 -1682 -1683
v -1684 -1685 -1686 -1687 -1688 -1689 -1690 -1691 -1692 -1693 -1694 -1695
v -1696 -1697 -1698 -1699 -1700 -1701 -1702 -1703 -1704 -1705 -1706 -1707
v -1708 -1709 -1710 1711 1712 1713 1714 1715 1716 1717 1718 1719 1720 1721
v 1722 1723 1724 1725 1726 1727 1728 1729 1730 -1731 -1732 -1733 -1734 -1735
v -1736 -1737 -1738 -1739 -1740 -1741 -1742 -1743 -1744 -1745 -1746 -1747
v -1748 -1749 -1750 -1751 -1752 -1753 -1754 -1755 -1756 -1757 -1758 -1759
v -1760 -1761 -1762 -1763 -1764 -1765 -1766 -1767 -1768 -1769 -1770 -1771
v -1772 -1773 -1774 -1775 -1776 -1777 -1778 -1779 -1780 -1781 -1782 -1783
v -1784 -1785 1786 1787 1788 1789 1790 1791 1792 1793 1794 1795 1796 1797 1798
v 1799 1800 1801 1802 1803 1804 -1805 -1806 -1807 -1808 -1809 -1810 -1811
v -1812 -1813 -1814 -1815 -1816 -1817 -1818 -1819 -1820 -1821 -1822 -1823
v -1824 -1825 -1826 -1827 -1828 -1829 -1830 -1831 -1832 -1833 -1834 -1835
v -1836 -1837 -1838 -1839 -1840 -1841 -1842 -1843 -1844 -1845 -1846 -1847
v -1848 -1849 -1850 -1851 -1852 -1853 -1854 -1855 -1856 -1857 -1858 -1859
v -1860 1861 1862 1863 1864 1865 1866 1867 1868 1869 1870 1871 1872 1873 1874
v 1875 1876 1877 1878 -1879 -1880 -1881 -1882 -1883 -1884 -1885 -1886 -1887
v -1888 -1889 -1890 -1891 -1892 -1893 -1894 -1895 -1896 -1897 -1898 -1899
v -1900 -1901 -1902 -1903 -1904 -1905 -1906 -1907 -1908 -1909 -1910 -1911
v -1912 -1913 -1914 -1915 -1916 -1917 -1918 -1919 -1920 -1921 -1922 -1923
v -1924 -1925 -1926 -1927 -1928 -1929 -1930 -1931 -1932 -1933 -1934 -1935 1936
v 1937 1938 1939 1940 1941 1942 1943 1944 1945 1946 1947 1948 1949 1950 1951
v 1952 -1953 -1954 -1955 -1956 -1957 -1958 -1959 -1960 -1961 -1962 -1963 -1964
v -1965 -1966 -1967 -1968 -1969 -1970 -1971 -1972 -1973 -1974 -1975 -1976
v -1977 -1978 -1979 -1980 -1981 -1982 -1983 -1984 -1985 -1986 -1987 -1988
v -1989 -1990 -1991 -1992 -1993 -1994 -1995 -1996 -1997 -1998 -1999 -2000
v -2001 -2002 -2003 -2004 -2005 -2006 -2007 -2008 -2009 -2010 -2011 -2012 2013
v 2014 2015 2016 2017 2018 2019 2020 2021 2022 2023 2024 2025 2026 -2027 -2028
v -2029 -2030 -2031 -2032 -2033 -2034 -2035 -2036 -2037 -2038 -2039 -2040
v -2041 -2042 -2043 -2044 -2045 -2046 -2047 -2048 -2049 -2050 -2051 -2052
v -2053 -2054 -2055 -2056 -2057 -2058 -2059 -2060 -2061 -2062 -2063 -2064
v -2065 -2066 -2067 -2068 -2069 -2070 -2071 -2072 -2073 -2074 -2075 -2076
v -2077 -2078 -2079 -2080 -2081 -2082 -2083 -2084 -2085 -2086 -2087 2088 2089
v 2090 2091 2092 2093 2094 2095 2096 2097 2098 2099 2100 -2101 -2102 -2103
v -2104 -2105 -2106 -2107 -2108 -2109 -2110 -2111 -2112 -2113 -2114 -2115
v -2116 -2117 -2118 -2119 -2120 -2121 -2122 -2123 -2124 -2125 -2126 -2127
v -2128 -2129 -2130 -2131 -2132 -2133 -2134 -2135 -2136 -2137 -2138 -2139
v -2140 -2141 -2142 -2143 -2144 -2145 -2146 -2147 -2148 -2149 -2150 -2151
v -2152 -2153 -2154 -2155 -2156 -2157 -2158 -2159 -2160 -2161 -2162 -2163
v -2164 2165 2166 2167 2168 2169 2170 2171 2172 2173 2174 -2175 -2176 -2177
v -2178 -2179 -2180 -2181 -2182 -2183 -2184 -2185 -2186 -2187 -2188 -2189
v -2190 -2191 -2192 -2193 -2194 -2195 -2196 -2197 -2198 -2199 -2200 -2201
v -2202 -2203 -2204 -2205 -2206 -2207 -2208 -2209 -2210 -2211 -2212 -2213
v -2214 -2215 -2216 -2217 -2218 -2219 -2220 -2221 -2222 -2223 -2224 -2225
v -2226 -2227 -2228 -2229 -2230 -2231 -2232 -2233 -2234 -2235 -2236 -2237
v -2238 -2239 2240 2241 2242 2243 2244 2245 2246 2247 2248 -2249 -2250 -2251
v -2252 -2253 -2254 -2255 -2256 -2257 -2258 -2259 -2260 -2261 -2262 -2263
v -2264 -2265 -2266 -2267 -2268 -2269 -2270 -2271 -2272 -2273 -2274 -2275
v -2276 -2277 -2278 -2279 -2280 -2281 -2282 -2283 -2284 -2285 -2286 -2287
v -2288 -2289 -2290 -2291 -2292 -2293 -2294 -2295 -2296 -2297 -2298 -2299
v -2300 -2301 -2302 -2303 -2304 -2305 -2306 -2307 -2308 -2309 -2310 -2311
v -2312 -2313 -2314 2315 2316 2317 2318 2319 2320 2321 2322 -2323 -2324 -2325
v -2326 -2327 -2328 -2329 -2330 -2331 -2332 -2333 -2334 -2335 -2336 -2337
v -2338 -2339 -2340 -2341 -2342 -2343 -2344 -2345 -2346 -2347 -2348 -2349
v -2350 -2351 -2352 -2353 -2354 -2355 -2356 -2357 -2358 -2359 -2360 -2361
v -2362 -2363 -2364 -2365 -2366 -2367 -2368 -2369 -2370 -2371 -2372 -2373
v -2374 -2375 -2376 -2377 -2378 -2379 -2380 -2381 -2382 -2383 -2384 -2385
v -2386 -2387 -2388 -2389 2390 2391 2392 2393 2394 2395 2396 -2397 -2398 -2399
v -2400 -2401 -2402 -2403 -2404 -2405 -2406 -2407 -2408 -2409 -2410 -2411
v -2412 -2413 -2414 -2415 -2416 -2417 -2418 -2419 -2420 -2421 -2422 -2423
v -2424 -2425 -2426 -2427 -2428 -2429 -2430 -2431 -2432 -2433 -2434 -2435
v -2436 -2437 -2438 -2439 -2440 -2441 -2442 -2443 -2444 -2445 -2446 -2447
v -2448 -2449 -2450 -2451 -2452 -2453 -2454 -2455 -2456 -2457 -2458 -2459
v -2460 -2461 -2462 -2463 -2464 -2465 -2466 -2467 2468 2469 2470 -2471 -2472
v -2473 -2474 -2475 -2476 -2477 -2478 -2479 -2480 -2481 -2482 -2483 -2484
v -2485 -2486 -2487 -2488 -2489 -2490 -2491 -2492 -2493 -2494 -2495 -2496
v -2497 -2498 -2499 -2500 -2501 -2502 -2503 -2504 -2505 -2506 -2507 -2508
v -2509 -2510 -2511 -2512 -2513 -2514 -2515 -2516 -2517 -2518 -2519 -2520
v -2521 -2522 -2523 -2524 -2525 -2526 -2527 -2528 -2529 -2530 -2531 -2532
v -2533 -2534 -2535 -2536 -2537 -2538 -2539 -2540 -2541 -2542 2543 2544 -2545
v -2546 -2547 -2548 -2549 -2550 -2551 -2552 -2553 -2554 -2555 -2556 -2557
v -2558 -2559 -2560 -2561 -2562 -2563 -2564 -2565 -2566 -2567 -2568 -2569
v -2570 -2571 -2572 -2573 -2574 -2575 -2576 -2577 -2578 -2579 -2580 -2581
v -2582 -2583 -2584 -2585 -2586 -2587 -2588 -2589 -2590 -2591 -2592 -2593
v -2594 -2595 -2596 -2597 -2598 -2599 -2600 -2601 -2602 -2603 -2604 -2605
v -2606 -2607 -2608 -2609 -2610 -2611 -2612 -2613 -2614 -2615 -2616 -2617 2618
v -2619 -2620 -2621 -2622 -2623 -2624 -2625 -2626 -2627 -2628 -2629 -2630
v -2631 -2632 -2633 -2634 -2635 -2636 -2637 -2638 -2639 -2640 -2641 -2642
v -2643 -2644 -2645 -2646 -2647 -2648 -2649 -2650 -2651 -2652 -2653 -2654
v -2655 -2656 -2657 -2658 -2659 -2660 -2661 -2662 -2663 -2664 -2665 -2666
v -2667 -2668 -2669 -2670 -2671 -2672 -2673 -2674 -2675 -2676 -2677 -2678
v -2679 -2680 -2681 -2682 -2683 -2684 -2685 -2686 -2687 -2688 -2689 -2690
v -2691 -2692 0
c 
c --- [ run-time profiling ] -------------------------------------------------
c 
c process time taken by individual solving procedures
c (percentage relative to process time for solving)
c 
c       124.94   97.95% search
c        65.84   51.61% unstable
c        56.54   44.33% stable
c         2.62    2.05% simplify
c         2.56    2.00% walk
c         1.27    0.99% subsume
c         0.59    0.46% vivify
c         0.31    0.25% probe
c         0.12    0.09% ternary
c         0.10    0.08% elim
c         0.00    0.00% parse
c         0.00    0.00% lucky
c   =================================
c       127.56  100.00% solve
c 
c last line shows process time for solving
c (percentage relative to total process time)
c 
c --- [ statistics ] ---------------------------------------------------------
c 
c chronological:            284341        19.87 %  of conflicts
c conflicts:               1431093     11218.97    per second
c decisions:               2539335     19906.97    per second
c eliminated:                 2051        76.19 %  of all variables
c fixed:                        80         2.97 %  of all variables
c learned:                 1404625        98.15 %  per conflict
c learned_lits:           54479948       100.00 %  learned literals
c minimized:                     0         0.00 %  learned literals
c shrunken:               17306201        31.77 %  learned literals
c minishrunken:            5304369         9.74 %  learned literals
c propagations:          117945872         0.92 M  per second
c reduced:                 1136661        79.43 %  per conflict
c rephased:                     53     27001.75    interval
c restarts:                  53191        26.90    interval
c stabilizing:                   5        47.66 %  of conflicts
c subsumed:                 190705         6.70 %  of all clauses
c strengthened:              11872         0.42 %  of all clauses
c ternary:                      18         0.03 %  of resolved
c vivified:                    167         0.01 %  of all clauses
c walked:                       17     84181.94    interval
c weakened:                   8765         2.90    average size
c 
c seconds are measured in process time for solving
c 
c --- [ resources ] ----------------------------------------------------------
c 
c total process time since initialization:       127.57    seconds
c total real time since initialization:          127.59    seconds
c maximum resident set size of process:           30.62    MB
c 
c --- [ shutting down ] ------------------------------------------------------
c 
c exit 10
